p wcnf 181 362 363 
1 -58 -168 0 
1 -70 -41 0 
1 1 141 0 
1 -64 23 0 
1 -22 -30 0 
1 -34 62 0 
1 -103 -151 0 
1 -13 110 0 
1 38 -22 0 
1 -44 100 0 
1 118 -163 0 
1 175 67 0 
1 -11 132 0 
1 -41 -125 0 
1 -55 -33 0 
1 -31 -20 0 
1 -13 -109 0 
1 -77 -94 0 
1 19 -95 0 
1 -55 104 0 
1 106 -105 0 
1 -48 -5 0 
1 -165 48 0 
1 112 -30 0 
1 -76 -109 0 
1 181 84 0 
1 -97 -140 0 
1 37 38 0 
1 32 69 0 
1 -31 105 0 
1 166 94 0 
1 177 24 0 
1 -14 -167 0 
1 177 -163 0 
1 -55 -143 0 
1 -78 36 0 
1 -19 -57 0 
1 158 -146 0 
1 -88 -152 0 
1 -179 28 0 
1 -177 165 0 
1 -125 150 0 
1 97 -131 0 
1 -181 64 0 
1 59 152 0 
1 131 -121 0 
1 59 27 0 
1 -163 33 0 
1 43 27 0 
1 164 -76 0 
1 -6 -120 0 
1 -73 69 0 
1 162 93 0 
1 -156 -180 0 
1 32 -27 0 
1 -118 -24 0 
1 -55 -131 0 
1 5 -92 0 
1 -154 123 0 
1 134 94 0 
1 -100 13 0 
1 93 165 0 
1 115 20 0 
1 76 13 0 
1 180 -118 0 
1 -152 33 0 
1 133 -75 0 
1 130 -146 0 
1 98 -23 0 
1 155 -179 0 
1 136 31 0 
1 109 -19 0 
1 -116 171 0 
1 -152 -149 0 
1 77 98 0 
1 40 158 0 
1 88 93 0 
1 106 -181 0 
1 87 145 0 
1 -63 -26 0 
1 153 2 0 
1 123 177 0 
1 -133 -43 0 
1 36 66 0 
1 -59 -133 0 
1 112 -27 0 
1 -55 -4 0 
1 119 20 0 
1 -16 115 0 
1 -141 30 0 
1 26 -175 0 
1 27 -12 0 
1 161 49 0 
1 -118 -37 0 
1 103 90 0 
1 -80 70 0 
1 -38 -36 0 
1 17 109 0 
1 119 146 0 
1 161 -170 0 
1 177 118 0 
1 71 -110 0 
1 -88 40 0 
1 -27 -98 0 
1 106 -82 0 
1 103 99 0 
1 181 55 0 
1 -153 -68 0 
1 175 63 0 
1 156 2 0 
1 54 -128 0 
1 -157 49 0 
1 22 128 0 
1 -134 -114 0 
1 80 -159 0 
1 28 152 0 
1 -100 -79 0 
1 48 174 0 
1 -142 -11 0 
1 -37 -59 0 
1 -121 167 0 
1 163 -89 0 
1 109 -33 0 
1 110 43 0 
1 -60 63 0 
1 -116 -164 0 
1 109 -129 0 
1 -176 171 0 
1 178 57 0 
1 -74 -70 0 
1 -41 170 0 
1 155 57 0 
1 170 175 0 
1 -121 100 0 
1 35 -102 0 
1 -57 135 0 
1 125 -102 0 
1 -19 125 0 
1 90 -35 0 
1 -7 19 0 
1 -58 -24 0 
1 133 -41 0 
1 7 41 0 
1 -85 50 0 
1 91 -48 0 
1 -25 -174 0 
1 91 -40 0 
1 78 -103 0 
1 -177 -159 0 
1 -97 -115 0 
1 47 99 0 
1 13 53 0 
1 32 -24 0 
1 -1 -98 0 
1 137 -170 0 
1 135 162 0 
1 -92 48 0 
1 131 -108 0 
1 64 39 0 
1 158 69 0 
1 -168 -39 0 
1 118 -149 0 
1 -114 93 0 
1 134 -52 0 
1 66 -76 0 
1 144 -72 0 
1 -181 -114 0 
1 76 -46 0 
1 -137 86 0 
1 -176 35 0 
1 117 -42 0 
1 66 -105 0 
1 177 55 0 
1 -179 -104 0 
1 -46 54 0 
1 31 59 0 
1 51 -170 0 
1 137 5 0 
1 -163 -37 0 
1 3 5 0 
1 40 162 0 
1 -31 160 0 
1 61 47 0 
1 174 -94 0 
1 121 144 0 
1 30 -88 0 
1 17 -140 0 
1 -146 99 0 
1 -101 -87 0 
1 10 42 0 
1 -82 -166 0 
1 181 90 0 
1 -120 -144 0 
1 -106 114 0 
1 -1 166 0 
1 33 125 0 
1 -84 79 0 
1 -103 -89 0 
1 138 178 0 
1 -117 97 0 
1 95 -3 0 
1 70 37 0 
1 130 -4 0 
1 -77 38 0 
1 137 -32 0 
1 -18 15 0 
1 115 -178 0 
1 -136 122 0 
1 -9 -65 0 
1 75 -180 0 
1 94 146 0 
1 11 -78 0 
1 37 -40 0 
1 139 148 0 
1 110 175 0 
1 -179 -66 0 
1 140 -125 0 
1 -41 66 0 
1 82 165 0 
1 -45 136 0 
1 -135 -136 0 
1 132 14 0 
1 77 -75 0 
1 -121 181 0 
1 -44 100 0 
1 -9 -15 0 
1 42 24 0 
1 -178 -3 0 
1 -30 -40 0 
1 -1 116 0 
1 -10 103 0 
1 -24 -106 0 
1 -127 95 0 
1 46 -131 0 
1 -46 13 0 
1 -119 110 0 
1 -79 -68 0 
1 153 -178 0 
1 -134 169 0 
1 -150 14 0 
1 32 120 0 
1 120 -24 0 
1 -99 146 0 
1 -89 -53 0 
1 -10 139 0 
1 -119 -158 0 
1 147 -29 0 
1 51 -12 0 
1 6 54 0 
1 -41 70 0 
1 72 136 0 
1 -161 29 0 
1 -112 97 0 
1 -11 -79 0 
1 127 -70 0 
1 -76 18 0 
1 -64 1 0 
1 160 -38 0 
1 169 101 0 
1 157 126 0 
1 -128 -151 0 
1 156 25 0 
1 3 -112 0 
1 -166 92 0 
1 -151 -52 0 
1 154 114 0 
1 115 106 0 
1 47 -129 0 
1 -19 166 0 
1 99 150 0 
1 -9 50 0 
1 99 -153 0 
1 78 -83 0 
1 82 163 0 
1 -31 119 0 
1 127 -161 0 
1 -123 93 0 
1 121 118 0 
1 137 125 0 
1 45 70 0 
1 -58 -69 0 
1 148 -136 0 
1 4 -83 0 
1 174 170 0 
1 -74 -58 0 
1 102 -140 0 
1 111 10 0 
1 -138 106 0 
1 113 -16 0 
1 30 164 0 
1 117 -64 0 
1 -4 130 0 
1 -136 125 0 
1 119 -92 0 
1 -42 -152 0 
1 -99 -65 0 
1 -73 138 0 
1 -65 -165 0 
1 19 50 0 
1 10 11 0 
1 -143 -103 0 
1 -67 179 0 
1 -88 -38 0 
1 -157 115 0 
1 71 -57 0 
1 -19 32 0 
1 -122 98 0 
1 -32 -79 0 
1 -88 -164 0 
1 81 -136 0 
1 -5 -168 0 
1 118 152 0 
1 180 88 0 
1 -9 -175 0 
1 90 18 0 
1 -8 -36 0 
1 -38 150 0 
1 26 -49 0 
1 -64 -114 0 
1 -135 120 0 
1 -26 58 0 
1 73 102 0 
1 34 -17 0 
1 -50 93 0 
1 137 112 0 
1 59 103 0 
1 -30 -148 0 
1 -32 137 0 
1 -158 -106 0 
1 -167 -45 0 
1 41 93 0 
1 90 -84 0 
1 -22 -131 0 
1 -106 -60 0 
1 12 68 0 
1 125 74 0 
1 -132 -91 0 
1 103 125 0 
1 -167 -53 0 
1 104 28 0 
1 -71 3 0 
1 -114 159 0 
1 -111 -103 0 
1 -20 -175 0 
1 -128 -99 0 
1 181 89 0 
1 -130 176 0 
1 171 60 0 
1 15 32 0 
1 45 55 0 
1 50 -90 0 
1 -158 118 0 
1 -70 -171 0 
1 -103 -11 0 
1 18 -169 0 
1 -178 -156 0 
1 -11 60 0 
1 31 -6 0 
1 -137 10 0 
1 -60 -49 0 
1 -111 -181 0 
1 33 126 0 
